0000111001000000010
0000111001000000100
0000111001001000010
0000111001001000100
0000111001101000010
0000111001101000100
0000111011000000110
0000111011100000110
0001110001000010000
0001110001000010010
0001110001000010100
0001110001000010110
0001110001001010000
0001110001001010100
0001110001001010110
0001110011000010000
0001110011000010010
0001110011000010100
0001110011000010110
0001111001000000010
0001111001000000100
0001111001100000010
0001111001100000100
0001111001101000100
0001111011000000110
0001111011100000100
0001111011100000110
0010110011000010000
0010110011000010100
0010110011000010110
0010111001000000010
0010111001000000100
0010111001001000010
0010111001001000100
0010111001100000010
0010111011000000100
0010111011000000110
0010111011100000100
0011110001000010010
0011110011000010010
0011111001000000010
0011111001000000100
0011111001001000100
0011111001100000100
0011111001101000100
0011111011000000110
